201 5
10 10 10 10 10 

0 0 0 0 0 0 5 2 14 26 38 50 
0 0 0 0 0 0 2 3 143 
2 0 0 1 0 0 3 8 7 4 
5 0 0 10 0 0 3 12 9 5 
4 0 0 9 0 0 2 11 6 
7 0 0 9 0 0 1 10 
10 0 0 8 0 0 1 9 
2 0 0 7 0 0 1 9 
1 0 0 10 0 0 1 13 
5 0 0 4 0 0 1 13 
10 0 0 9 0 0 1 13 
9 0 0 8 0 0 1 13 
0 0 0 0 0 0 1 62 
0 0 0 0 0 0 3 15 23 24 
3 0 0 1 0 0 2 19 16 
3 0 0 10 0 0 2 22 17 
7 0 0 9 0 0 1 18 
1 0 0 7 0 0 1 20 
7 0 0 5 0 0 1 21 
6 0 0 8 0 0 2 25 159 
6 0 0 9 0 0 1 25 
10 0 0 6 0 0 1 25 
8 0 0 10 0 0 1 25 
10 0 0 10 0 0 1 25 
0 0 0 0 0 0 1 62 
0 0 0 0 0 0 3 27 28 30 
3 0 0 0 2 0 3 36 32 29 
9 0 0 0 10 0 2 36 29 
8 0 0 0 10 0 2 35 31 
5 0 0 0 4 0 2 32 144 
7 0 0 0 6 0 1 33 
9 0 0 0 10 0 1 33 
10 0 0 0 7 0 1 34 
3 0 0 0 6 0 1 37 
6 0 0 0 10 0 1 37 
6 0 0 0 10 0 1 37 
0 0 0 0 0 0 1 62 
0 0 0 0 0 0 3 39 47 48 
2 0 10 0 0 0 2 46 40 
1 0 8 0 0 0 2 45 41 
2 0 3 0 0 0 2 44 42 
6 0 7 0 0 0 1 43 
7 0 10 0 0 0 2 49 88 
1 0 7 0 0 0 1 49 
2 0 10 0 0 0 1 49 
9 0 3 0 0 0 1 49 
3 0 10 0 0 0 1 49 
9 0 7 0 0 0 1 49 
0 0 0 0 0 0 1 62 
0 0 0 0 0 0 2 51 53 
8 0 0 1 0 0 2 57 52 
1 0 0 5 0 0 3 60 55 54 
3 0 0 10 0 0 4 60 55 54 169 
6 0 0 10 0 0 2 59 58 
7 0 0 9 0 0 1 56 
6 0 0 10 0 0 1 58 
8 0 0 5 0 0 1 59 
8 0 0 7 0 0 1 61 
6 0 0 8 0 0 1 61 
10 0 0 10 0 0 1 61 
0 0 0 0 0 0 1 62 
0 0 0 0 0 0 4 63 85 107 119 
0 0 0 0 0 0 9 64 69 77 78 79 80 81 82 83 
1 0 4 2 0 0 2 76 65 
4 0 5 10 0 0 3 75 66 149 
9 0 8 6 0 0 1 67 
8 0 10 9 0 0 1 68 
6 0 6 4 0 0 1 70 
5 0 7 8 0 0 1 70 
5 0 10 7 0 0 1 71 
3 0 10 10 0 0 1 72 
2 0 5 10 0 0 1 73 
5 0 6 10 0 0 1 74 
3 0 10 4 0 0 1 84 
3 0 8 5 0 0 1 84 
5 0 5 7 0 0 1 84 
8 0 6 8 0 0 1 84 
9 0 10 8 0 0 1 84 
5 0 5 6 0 0 1 84 
4 0 6 8 0 0 1 84 
10 0 9 8 0 0 1 84 
3 0 10 10 0 0 1 84 
4 0 10 10 0 0 1 84 
0 0 0 0 0 0 1 165 
0 0 0 0 0 0 3 86 87 116 
3 1 0 0 0 3 2 92 88 
4 8 0 0 0 7 3 100 91 89 
2 9 0 0 0 8 2 100 90 
2 8 0 0 0 9 3 95 93 92 
8 9 0 0 0 7 2 95 91 
8 9 0 0 0 6 1 93 
7 7 0 0 0 8 4 103 99 97 96 
7 7 0 0 0 4 1 94 
3 6 0 0 0 9 4 103 102 99 97 
2 9 0 0 0 10 4 103 102 99 97 
4 9 0 0 0 10 2 102 101 
9 9 0 0 0 7 1 98 
5 9 0 0 0 9 1 101 
5 10 0 0 0 4 1 101 
6 6 0 0 0 5 1 102 
10 4 0 0 0 9 1 104 
8 3 0 0 0 9 1 104 
8 9 0 0 0 8 1 105 
10 9 0 0 0 10 1 106 
10 9 0 0 0 8 1 106 
0 0 0 0 0 0 1 165 
0 0 0 0 0 0 3 108 112 114 
1 2 0 0 0 0 2 111 109 
2 8 0 0 0 0 1 110 
1 8 0 0 0 0 3 117 116 113 
10 9 0 0 0 0 3 117 116 113 
10 10 0 0 0 0 2 116 115 
6 7 0 0 0 0 1 115 
10 7 0 0 0 0 1 115 
1 7 0 0 0 0 1 118 
8 10 0 0 0 0 2 118 130 
10 7 0 0 0 0 1 118 
0 0 0 0 0 0 2 141 153 
0 0 0 0 0 0 1 120 
4 0 0 2 0 3 1 121 
7 0 0 5 0 8 2 123 122 
8 0 0 5 0 10 2 126 124 
3 0 0 7 0 7 1 124 
10 0 0 10 0 10 2 127 125 
5 0 0 5 0 6 3 130 129 128 
8 0 0 9 0 6 2 128 127 
8 0 0 10 0 7 3 133 132 131 
8 0 0 8 0 4 2 132 131 
4 0 0 7 0 8 2 133 132 
10 0 0 8 0 6 1 131 
5 0 0 4 0 9 2 136 134 
5 0 0 6 0 8 2 136 134 
10 0 0 10 0 7 3 139 138 136 
1 0 0 5 0 10 3 139 135 158 
7 0 0 9 0 7 2 138 137 
2 0 0 10 0 10 1 137 
1 0 0 10 0 6 1 140 
8 0 0 10 0 8 1 140 
4 0 0 10 0 10 1 140 
0 0 0 0 0 0 1 165 
0 0 0 0 0 0 3 142 143 146 
3 0 0 0 0 1 2 148 144 
3 0 0 0 0 10 3 151 150 145 
1 0 0 0 0 9 2 150 145 
7 0 0 0 0 8 1 147 
3 0 0 0 0 6 1 147 
1 0 0 0 0 9 1 149 
9 0 0 0 0 8 1 149 
1 0 0 0 0 8 1 152 
6 0 0 0 0 7 1 152 
5 0 0 0 0 9 1 152 
0 0 0 0 0 0 1 165 
0 0 0 0 0 0 3 154 156 158 
9 0 3 0 0 0 2 157 155 
6 0 6 0 0 0 2 162 159 
9 0 10 0 0 0 2 163 160 
6 0 10 0 0 0 1 159 
1 0 10 0 0 0 1 159 
1 0 5 0 0 0 1 160 
2 0 4 0 0 0 1 161 
4 0 8 0 0 0 1 164 
3 0 9 0 0 0 1 164 
9 0 10 0 0 0 1 164 
0 0 0 0 0 0 1 165 
0 0 0 0 0 0 2 166 178 
0 0 0 0 0 0 1 167 
4 0 0 0 0 4 3 172 169 168 
5 0 0 0 0 6 2 171 170 
10 0 0 0 0 8 1 170 
10 0 0 0 0 8 3 176 174 173 
2 0 0 0 0 10 2 174 173 
2 0 0 0 0 10 2 176 174 
7 0 0 0 0 10 1 175 
3 0 0 0 0 5 1 177 
5 0 0 0 0 6 1 177 
8 0 0 0 0 8 1 177 
0 0 0 0 0 0 1 190 
0 0 0 0 0 0 4 179 180 181 183 
3 1 0 0 0 0 2 186 182 
7 9 0 0 0 0 1 182 
1 7 0 0 0 0 2 188 185 
8 6 0 0 0 0 1 184 
1 10 0 0 0 0 1 184 
10 9 0 0 0 0 1 185 
7 7 0 0 0 0 1 187 
4 10 0 0 0 0 1 187 
9 10 0 0 0 0 1 189 
5 6 0 0 0 0 1 189 
0 0 0 0 0 0 1 190 
0 0 0 0 0 0 3 191 195 197 
9 0 0 3 0 0 2 194 192 
2 0 0 8 0 0 2 200 193 
9 0 0 7 0 0 2 199 196 
3 0 0 8 0 0 2 200 196 
5 0 0 7 0 0 2 199 196 
7 0 0 10 0 0 1 198 
3 0 0 10 0 0 1 198 
4 0 0 8 0 0 1 201 
1 0 0 4 0 0 1 201 
5 0 0 10 0 0 1 201 
0 0 0 0 0 0 0 
